66	12	4	63	
10	10	10	10

0	0	0	0	0	0	4	1	2	3	4
1	6	4	6	5	10	2	5	6
2	2	5	3	5	3	2	5	9
3	4	10	9	7	5	1	6
4	10	4	5	1	7	2	5	9
5	7	2	4	5	2	1	10
6	1	6	1	7	5	1	7
7	10	6	3	8	9	1	8
8	1	3	10	7	7	1	9
9	8	8	2	10	8	1	11
10	1	9	1	6	10	1	11
11	0	0	0	0	0	0
